NAME : a280
COMMENT : Tour length 3649
TYPE : TOUR
DIMENSION : 280
TOUR_SECTION
1
2
242
243
248
249
256
255
252
209
208
253
254
257
262
261
263
265
266
138
137
267
140
139
148
141
142
143
144
145
146
147
149
150
151
152
156
119
157
158
159
160
175
161
162
163
164
165
166
167
168
169
101
100
99
98
93
94
95
96
97
92
91
90
89
81
80
79
76
75
74
73
72
71
70
67
66
65
64
58
57
56
55
54
53
52
51
50
49
48
47
46
45
44
59
63
62
118
117
115
114
113
87
84
85
86
116
111
110
108
104
105
106
107
173
174
171
172
170
102
103
109
112
88
83
82
77
78
69
68
60
43
42
41
40
39
38
37
36
35
34
33
31
30
125
124
123
122
121
120
153
155
154
129
128
127
126
29
28
27
26
22
25
23
24
14
15
271
272
273
274
10
11
12
13
16
17
18
133
132
19
20
21
130
131
134
135
136
268
269
270
264
258
259
260
275
276
277
4
279
278
247
244
241
240
239
238
231
246
245
250
251
230
229
228
227
226
234
233
232
237
236
235
224
225
223
222
219
218
217
220
221
216
213
212
207
210
211
214
215
205
204
203
202
200
199
198
197
194
195
196
201
193
192
191
190
189
188
187
185
184
183
182
181
176
177
178
179
180
186
206
3
280
5
6
7
8
9
32
61
1
-1
EOF